Route #1: 43 47 38 15 34 32 35 27 21 18 4
Route #2: 39 54 6 3 16 12 52
Route #3: 51 14 45 55 24 49 46 2 44 7
Route #4: 11 36 50 40 17 48 10 41
Route #5: 37 22 13 33 19 30
Route #6: 31 23 29 28 20 53 25
Route #7: 26 42
Route #8: 5 8
Route #9: 9 1
cost 1946.386293437345
